words_hard_train/2724.qaiger
aag 95 16 0 1 79
2
4
12
22
28
36
48
56
84
92
110
118
138
146
162
164
191
6 2 4
8 3 5
10 7 9
14 11 13
16 10 12
18 15 17
20 18 2
24 20 22
26 25 17
30 9 28
32 8 29
34 31 33
38 35 37
40 34 36
42 39 41
44 27 42
46 45 41
50 33 48
52 32 49
54 51 53
58 55 57
60 54 56
62 59 61
64 46 63
66 47 62
68 65 67
70 26 43
72 71 45
74 69 73
76 19 23
78 76 3
80 79 25
82 67 61
86 53 84
88 52 85
90 87 89
94 91 93
96 90 92
98 95 97
100 82 99
102 83 98
104 101 103
106 81 105
108 103 97
112 89 110
114 88 111
116 113 115
120 117 119
122 116 118
124 121 123
126 108 125
128 109 124
130 127 129
132 106 131
134 74 132
136 129 123
140 115 138
142 114 139
144 141 143
148 145 147
150 144 146
152 149 151
154 136 153
156 137 152
158 155 157
160 134 159
166 162 164
168 163 165
170 167 169
172 170 143
174 171 142
176 173 175
178 157 151
180 176 179
182 177 178
184 181 183
186 160 185
188 161 184
190 187 189
i0 1 x2[0]
i1 1 x2[1]
i2 2 y2[1]
i3 2 y2[0]
i4 1 x2[2]
i5 2 y2[2]
i6 1 x2[3]
i7 2 y2[3]
i8 1 x2[4]
i9 2 y2[4]
i10 1 x2[5]
i11 2 y2[5]
i12 1 x2[6]
i13 2 y2[6]
i14 2 y2[7]
i15 1 x2[7]
o0 bv[0]
c
simplified
  >
    >> 7
      1
    subtract
      subtract
        2 y2
        1 x2
      1
