words_hard_train/2724.qaiger.qdimacs
p cnf 95 238
a 1 2 69 42 14 82 55 24 0
e 3 4 5 6 7 8 9 10 11 12 13 15 16 17 18 19 20 21 22 23 25 26 27 28 29 30 31 32 33 34 35 36 37 38 39 40 41 43 44 45 46 47 48 49 50 51 52 53 54 56 57 58 59 60 61 62 63 64 65 66 67 68 70 71 72 73 74 75 76 77 78 79 80 81 83 84 85 86 87 88 89 90 91 92 93 94 95 0
-1 -2 3 0
1 -3 0
2 -3 0
1 2 4 0
-1 -4 0
-2 -4 0
3 4 5 0
-3 -5 0
-4 -5 0
5 6 7 0
-5 -7 0
-6 -7 0
-5 -6 8 0
5 -8 0
6 -8 0
7 8 9 0
-7 -9 0
-8 -9 0
-9 -1 10 0
9 -10 0
1 -10 0
-10 -11 12 0
10 -12 0
11 -12 0
12 8 13 0
-12 -13 0
-8 -13 0
4 -14 15 0
-4 -15 0
14 -15 0
-4 14 16 0
4 -16 0
-14 -16 0
15 16 17 0
-15 -17 0
-16 -17 0
17 18 19 0
-17 -19 0
-18 -19 0
-17 -18 20 0
17 -20 0
18 -20 0
19 20 21 0
-19 -21 0
-20 -21 0
13 -21 22 0
-13 -22 0
21 -22 0
22 20 23 0
-22 -23 0
-20 -23 0
16 -24 25 0
-16 -25 0
24 -25 0
-16 24 26 0
16 -26 0
-24 -26 0
25 26 27 0
-25 -27 0
-26 -27 0
27 28 29 0
-27 -29 0
-28 -29 0
-27 -28 30 0
27 -30 0
28 -30 0
29 30 31 0
-29 -31 0
-30 -31 0
-23 31 32 0
23 -32 0
-31 -32 0
23 -31 33 0
-23 -33 0
31 -33 0
32 33 34 0
-32 -34 0
-33 -34 0
-13 21 35 0
13 -35 0
-21 -35 0
35 22 36 0
-35 -36 0
-22 -36 0
34 36 37 0
-34 -37 0
-36 -37 0
9 11 38 0
-9 -38 0
-11 -38 0
-38 1 39 0
38 -39 0
-1 -39 0
39 12 40 0
-39 -40 0
-12 -40 0
33 30 41 0
-33 -41 0
-30 -41 0
26 -42 43 0
-26 -43 0
42 -43 0
-26 42 44 0
26 -44 0
-42 -44 0
43 44 45 0
-43 -45 0
-44 -45 0
45 46 47 0
-45 -47 0
-46 -47 0
-45 -46 48 0
45 -48 0
46 -48 0
47 48 49 0
-47 -49 0
-48 -49 0
-41 49 50 0
41 -50 0
-49 -50 0
41 -49 51 0
-41 -51 0
49 -51 0
50 51 52 0
-50 -52 0
-51 -52 0
40 52 53 0
-40 -53 0
-52 -53 0
51 48 54 0
-51 -54 0
-48 -54 0
44 -55 56 0
-44 -56 0
55 -56 0
-44 55 57 0
44 -57 0
-55 -57 0
56 57 58 0
-56 -58 0
-57 -58 0
58 59 60 0
-58 -60 0
-59 -60 0
-58 -59 61 0
58 -61 0
59 -61 0
60 61 62 0
-60 -62 0
-61 -62 0
-54 62 63 0
54 -63 0
-62 -63 0
54 -62 64 0
-54 -64 0
62 -64 0
63 64 65 0
-63 -65 0
-64 -65 0
-53 65 66 0
53 -66 0
-65 -66 0
-37 -66 67 0
37 -67 0
66 -67 0
64 61 68 0
-64 -68 0
-61 -68 0
57 -69 70 0
-57 -70 0
69 -70 0
-57 69 71 0
57 -71 0
-69 -71 0
70 71 72 0
-70 -72 0
-71 -72 0
72 73 74 0
-72 -74 0
-73 -74 0
-72 -73 75 0
72 -75 0
73 -75 0
74 75 76 0
-74 -76 0
-75 -76 0
-68 76 77 0
68 -77 0
-76 -77 0
68 -76 78 0
-68 -78 0
76 -78 0
77 78 79 0
-77 -79 0
-78 -79 0
-67 79 80 0
67 -80 0
-79 -80 0
-81 -82 83 0
81 -83 0
82 -83 0
81 82 84 0
-81 -84 0
-82 -84 0
83 84 85 0
-83 -85 0
-84 -85 0
-85 71 86 0
85 -86 0
-71 -86 0
85 -71 87 0
-85 -87 0
71 -87 0
86 87 88 0
-86 -88 0
-87 -88 0
78 75 89 0
-78 -89 0
-75 -89 0
-88 89 90 0
88 -90 0
-89 -90 0
88 -89 91 0
-88 -91 0
89 -91 0
90 91 92 0
-90 -92 0
-91 -92 0
-80 92 93 0
80 -93 0
-92 -93 0
80 -92 94 0
-80 -94 0
92 -94 0
93 94 95 0
-93 -95 0
-94 -95 0
-95 0
